Minimize
  - 4 y_0 - 23 y_1 - 24 y_2 - 14 y_3 - 17 y_4 - 24 y_5 - 28 y_6 - 19 y_7
   - 22 y_8 - 18 y_9 - 19 y_10 - 27 y_11 - 12 y_12 - 18 y_13 - 15 y_14
   - 20 y_15 - 18 y_16 - 30 y_17 - 11 y_18 - 5 y_19 - 16 y_20 - 19 y_21
   - 17 y_22 - 32 y_23 - 25 y_24 - 29 y_25 - 13 y_27 - 24 y_28 - 21 y_29
   - 19 y_30 - 18 y_31 - 13 y_32 - 12 y_33 - 24 y_34 - 15 y_35 - 24 y_36
   - 23 y_37 - 18 y_38 - 19 y_39 - 30 y_40 - 25 y_41 - 19 y_42 - 22 y_43
   - 14 y_44 - 25 y_45 - 12 y_46 - 26 y_47 - 20 y_48 - 2 y_49
   + 944 Constant
Subject To
 c_0: y_36 = 1
 c_1_0: y_0 + y_19 + y_26 + y_27 + y_46 + y_49 >= 1
 c_1_1: y_1 + y_10 + y_24 + y_25 + y_35 >= 1
 c_1_2: y_2 + y_15 + y_16 + y_21 + y_28 + y_38 + y_45 >= 1
 c_1_3: y_3 + y_9 + y_14 + y_16 + y_20 + y_21 + y_22 + y_32 + y_44 + y_46
   >= 1
 c_1_4: y_4 + y_5 + y_13 + y_18 + y_31 + y_33 + y_35 + y_43 + y_48 >= 1
 c_1_5: y_4 + y_5 + y_6 + y_13 + y_17 + y_23 + y_31 + y_36 + y_43 + y_48
   >= 1
 c_1_6: y_5 + y_6 + y_17 + y_23 + y_25 + y_31 + y_43 >= 1
 c_1_7: y_7 + y_39 >= 1
 c_1_8: y_8 + y_13 + y_27 + y_36 + y_42 + y_48 >= 1
 c_1_9: y_3 + y_9 + y_14 + y_16 + y_20 + y_22 + y_34 + y_44 + y_46 >= 1
 c_1_10: y_1 + y_10 + y_24 + y_35 >= 1
 c_1_11: y_11 + y_34 + y_37 + y_47 >= 1
 c_1_12: y_12 + y_29 + y_30 + y_39 >= 1
 c_1_13: y_4 + y_5 + y_8 + y_13 + y_18 + y_27 + y_31 + y_33 + y_36 + y_42
   + y_43 + y_48 >= 1
 c_1_14: y_3 + y_9 + y_14 + y_20 + y_22 + y_34 + y_37 + y_44 + y_46 >= 1
 c_1_15: y_2 + y_15 + y_21 + y_32 + y_38 + y_45 >= 1
 c_1_16: y_2 + y_3 + y_9 + y_16 + y_21 + y_22 + y_28 + y_32 + y_38 + y_46
   >= 1
 c_1_17: y_5 + y_6 + y_17 + y_23 + y_25 + y_43 >= 1
 c_1_18: y_4 + y_13 + y_18 + y_27 + y_31 + y_33 + y_35 + y_48 >= 1
 c_1_19: y_0 + y_19 + y_26 + y_32 + y_49 >= 1
 c_1_20: y_3 + y_9 + y_14 + y_20 + y_34 + y_37 + y_44 + y_46 >= 1
 c_1_21: y_2 + y_3 + y_15 + y_16 + y_21 + y_22 + y_28 + y_32 + y_38 + y_45
   >= 1
 c_1_22: y_3 + y_9 + y_14 + y_16 + y_21 + y_22 + y_28 + y_32 + y_38 + y_44
   + y_46 >= 1
 c_1_23: y_5 + y_6 + y_17 + y_23 + y_25 >= 1
 c_1_24: y_1 + y_10 + y_24 + y_25 >= 1
 c_1_25: y_1 + y_6 + y_17 + y_23 + y_24 + y_25 >= 1
 c_1_26: y_0 + y_19 + y_26 + y_49 >= 1
 c_1_27: y_0 + y_8 + y_13 + y_18 + y_27 + y_33 + y_42 + y_48 >= 1
 c_1_28: y_2 + y_16 + y_21 + y_22 + y_28 + y_38 + y_45 >= 1
 c_1_29: y_12 + y_29 + y_30 + y_41 >= 1
 c_1_30: y_12 + y_29 + y_30 + y_41 >= 1
 c_1_31: y_4 + y_5 + y_6 + y_13 + y_18 + y_31 + y_33 + y_35 + y_43 + y_48
   >= 1
 c_1_32: y_3 + y_15 + y_16 + y_19 + y_21 + y_22 + y_32 + y_38 + y_46 >= 1
 c_1_33: y_4 + y_13 + y_18 + y_27 + y_31 + y_33 + y_35 + y_43 + y_48 >= 1
 c_1_34: y_9 + y_11 + y_14 + y_20 + y_34 + y_37 + y_47 >= 1
 c_1_35: y_1 + y_4 + y_10 + y_18 + y_31 + y_33 + y_35 + y_43 >= 1
 c_1_36: y_5 + y_8 + y_13 + y_36 + y_42 + y_48 >= 1
 c_1_37: y_11 + y_14 + y_20 + y_34 + y_37 + y_44 + y_47 >= 1
 c_1_38: y_2 + y_15 + y_16 + y_21 + y_22 + y_28 + y_32 + y_38 + y_45 >= 1
 c_1_39: y_7 + y_12 + y_39 >= 1
 c_1_40: y_40 >= 1
 c_1_41: y_29 + y_30 + y_41 >= 1
 c_1_42: y_8 + y_13 + y_27 + y_36 + y_42 + y_48 >= 1
 c_1_43: y_4 + y_5 + y_6 + y_13 + y_17 + y_31 + y_33 + y_35 + y_43 + y_48
   >= 1
 c_1_44: y_3 + y_9 + y_14 + y_20 + y_22 + y_37 + y_44 + y_46 >= 1
 c_1_45: y_2 + y_15 + y_21 + y_28 + y_38 + y_45 >= 1
 c_1_46: y_0 + y_3 + y_9 + y_14 + y_16 + y_20 + y_22 + y_32 + y_44 + y_46
   >= 1
 c_1_47: y_11 + y_34 + y_37 + y_47 >= 1
 c_1_48: y_4 + y_5 + y_8 + y_13 + y_18 + y_27 + y_31 + y_33 + y_36 + y_42
   + y_43 + y_48 >= 1
 c_1_49: y_0 + y_19 + y_26 + y_49 >= 1
Bounds
 Constant = 1
Binaries
 y_0 y_1 y_2 y_3 y_4 y_5 y_6 y_7 y_8 y_9 y_10 y_11 y_12 y_13 y_14 y_15 y_16
 y_17 y_18 y_19 y_20 y_21 y_22 y_23 y_24 y_25 y_26 y_27 y_28 y_29 y_30 y_31
 y_32 y_33 y_34 y_35 y_36 y_37 y_38 y_39 y_40 y_41 y_42 y_43 y_44 y_45 y_46
 y_47 y_48 y_49
End
